55	12	4	29	
14	13	15	11

0	0	0	0	0	0	2	1	2
1	0	6	0	4	2	1	4
2	5	9	4	4	10	2	3	6
3	6	0	0	1	7	1	9
4	10	0	7	6	1	1	5
5	8	1	4	2	7	2	6	10
6	7	7	3	3	6	1	7
7	2	7	9	5	3	1	8
8	4	6	6	0	3	1	11
9	3	0	0	0	9	1	11
10	5	0	10	5	7	1	11
11	0	0	0	0	0	0
